webassembly/ejemplos_results/6/folder6_json_30.txt
value = 6;
fgas = [1, 1, 1, 1, 1, 1];
fsize = [1, 1, 1, 1, 1, 1];
states = 
[|    in_0, in_1, in_2,  '.', '.', '.', '.', '.', '.'
 | local_0, in_0, in_1, in_2, '.', '.', '.', '.', '.'
 |    in_1, in_2,  '.',  '.', '.', '.', '.', '.', '.'
 |  's(0)', in_2,  '.',  '.', '.', '.', '.', '.', '.'
 |  's(1)',  '.',  '.',  '.', '.', '.', '.', '.', '.'
 |  's(2)',  '.',  '.',  '.', '.', '.', '.', '.', '.'
 |  's(3)',  '.',  '.',  '.', '.', '.', '.', '.', '.'
 |];
register_states = 
[| '.', '.', '.'
 | '.', '.', '.'
 | '.', '.', '.'
 | '.', '.', '.'
 | '.', '.', '.'
 | '.', '.', '.'
 | '.', '.', '.'
 |];
program = [O('local.get_0'), O('i32.store16_1'), O('i32.load16_s_2'), O('i32.add_0'), O('i32.load8_s_4'), O('i32.load16_u_5')];
% time elapsed: 0.11 s
----------
==========
% time elapsed: 0.11 s
% [value > 5]
